1
1000
46
150 2
151 4
152 1
153 4
154 2
155 2
157 2
158 1
159 5
160 3
161 1
163 2
164 2
166 1
167 3
168 1
169 3
170 2
171 2
172 2
173 1
174 1
176 2
177 2
178 5
179 4
180 3
181 3
182 2
183 1
184 1
185 1
187 2
188 3
189 2
190 4
191 2
192 1
193 1
194 3
195 2
196 2
197 1
198 3
199 1
200 2
